
Gurobi 9.0.2 (win64) logging started Sat Oct 10 14:08:37 2020

Changed value of parameter logfile to result\v6.2-20201010T1221\scenario_2030_eff050_cab1000.log
   Prev:   Default: 
Gurobi Optimizer version 9.0.2 build v9.0.2rc0 (win64)
Optimize a model with 1384150 rows, 884815 columns and 3912197 nonzeros
Model fingerprint: 0x8423b9cd
Coefficient statistics:
  Matrix range     [1e-07, 3e+05]
  Objective range  [1e+00, 1e+00]
  Bounds range     [0e+00, 0e+00]
  RHS range        [2e-05, 3e+08]
Warning: Model contains large matrix coefficient range
         Consider reformulating model or setting NumericFocus parameter
         to avoid numerical issues.

Concurrent LP optimizer: primal simplex, dual simplex, and barrier
Showing barrier log only...

Presolve removed 1129315 rows and 656241 columns
Presolve time: 3.45s
Presolved: 254835 rows, 342440 columns, 891938 nonzeros

Ordering time: 0.13s

Barrier statistics:
 Dense cols : 9
 AA' NZ     : 8.194e+05
 Factor NZ  : 4.461e+06 (roughly 300 MBytes of memory)
 Factor Ops : 1.125e+08 (less than 1 second per iteration)
 Threads    : 30

                  Objective                Residual
Iter       Primal          Dual         Primal    Dual     Compl     Time
   0  -1.88120322e+16 -1.58515567e+15  5.64e+06 1.56e+04  2.26e+12     4s
   1  -2.86980435e+15 -1.58806905e+15  8.53e+05 4.69e+06  7.41e+11     5s
   2  -1.21908804e+15 -1.28703403e+15  3.60e+05 9.66e+05  2.23e+11     5s
   3  -4.90328942e+14 -1.06231684e+15  1.42e+05 2.72e+05  7.90e+10     5s
   4  -1.12817609e+14 -6.69892880e+14  3.01e+04 6.72e+04  1.83e+10     6s
   5  -3.54191833e+13 -4.52550074e+14  9.39e+03 3.39e+04  7.60e+09     6s
   6  -1.71451306e+13 -2.53554800e+14  4.77e+03 1.04e+04  2.95e+09     6s
   7  -6.87320371e+12 -1.44617469e+14  2.04e+03 1.98e+03  9.27e+08     6s
   8  -1.34256901e+12 -7.41348063e+13  5.22e+02 2.97e+02  2.30e+08     6s
   9   5.10596495e+11 -1.02271646e+13  2.98e+00 4.08e+00  1.62e+07     7s
  10   1.89161668e+11 -1.52092250e+12  1.95e-01 4.26e-01  2.50e+06     7s
  11   8.25378625e+10 -4.87730739e+11  6.85e-02 3.21e-02  8.29e+05     7s
  12   4.93079464e+10 -3.16451950e+11  3.79e-02 7.45e-09  5.31e+05     8s
  13   2.40812844e+10 -1.25185092e+11  1.53e-02 1.12e-08  2.16e+05     8s
  14   1.65887725e+10 -6.54679037e+10  8.79e-03 1.12e-08  1.19e+05     8s
  15   1.13969276e+10 -2.57093907e+10  3.37e-03 1.12e-08  5.37e+04     8s
  16   8.58758470e+09 -3.71406600e+09  1.29e-03 9.31e-09  1.78e+04     9s
  17   7.14109157e+09  1.50791639e+09  5.02e-04 7.45e-09  8.14e+03     9s
  18   6.98965082e+09  3.63886179e+09  4.27e-04 5.59e-09  4.84e+03     9s
  19   6.65167237e+09  4.40667703e+09  2.68e-04 3.73e-09  3.24e+03    10s
  20   6.54570112e+09  4.50024465e+09  2.19e-04 3.73e-09  2.96e+03    10s
  21   6.44837589e+09  4.87200542e+09  1.76e-04 3.73e-09  2.28e+03    10s
  22   6.32980769e+09  5.34660809e+09  1.23e-04 2.79e-09  1.42e+03    10s
  23   6.24091192e+09  5.54870036e+09  8.44e-05 2.79e-09  1.00e+03    11s
  24   6.16637720e+09  5.70676533e+09  5.31e-05 1.86e-09  6.64e+02    11s
  25   6.13245925e+09  5.78716769e+09  3.91e-05 1.86e-09  4.99e+02    12s
  26   6.11300594e+09  5.85381947e+09  3.11e-05 1.86e-09  3.74e+02    12s
  27   6.09574276e+09  5.89136704e+09  2.42e-05 1.86e-09  2.95e+02    12s
  28   6.08437275e+09  5.91603239e+09  1.98e-05 1.86e-09  2.43e+02    13s
  29   6.07491713e+09  5.94545477e+09  1.63e-05 1.86e-09  1.87e+02    13s
  30   6.06435579e+09  5.96741065e+09  1.22e-05 1.86e-09  1.40e+02    13s
  31   6.05842021e+09  5.98159665e+09  9.88e-06 1.86e-09  1.11e+02    14s
  32   6.05108607e+09  5.99700385e+09  7.19e-06 1.86e-09  7.81e+01    14s
  33   6.04865020e+09  6.00736902e+09  6.31e-06 1.86e-09  5.96e+01    15s
  34   6.04618905e+09  6.01046741e+09  5.38e-06 1.86e-09  5.16e+01    15s
  35   6.04487809e+09  6.01345415e+09  4.88e-06 1.86e-09  4.54e+01    15s
  36   6.04288327e+09  6.01653584e+09  4.15e-06 1.86e-09  3.81e+01    16s
  37   6.04051621e+09  6.01871437e+09  3.28e-06 1.86e-09  3.15e+01    16s
  38   6.03935708e+09  6.02206350e+09  2.85e-06 1.86e-09  2.50e+01    16s
  39   6.03913806e+09  6.02268859e+09  2.76e-06 1.86e-09  2.38e+01    17s
  40   6.03783124e+09  6.02451324e+09  2.26e-06 1.86e-09  1.92e+01    17s
  41   6.03684854e+09  6.02530785e+09  1.87e-06 1.86e-09  1.67e+01    18s
  42   6.03617025e+09  6.02671825e+09  1.62e-06 2.79e-09  1.37e+01    18s
  43   6.03545963e+09  6.02778030e+09  1.35e-06 1.86e-09  1.11e+01    18s
  44   6.03482810e+09  6.02836902e+09  1.11e-06 1.86e-09  9.33e+00    19s
  45   6.03436825e+09  6.02889582e+09  9.47e-07 1.86e-09  7.91e+00    19s
  46   6.03419391e+09  6.02922360e+09  8.81e-07 1.86e-09  7.18e+00    19s
  47   6.03374968e+09  6.02955358e+09  7.17e-07 1.86e-09  6.06e+00    20s
  48   6.03353049e+09  6.02995410e+09  6.39e-07 1.86e-09  5.17e+00    20s
  49   6.03328143e+09  6.03005415e+09  5.50e-07 2.79e-09  4.66e+00    21s
  50   6.03314431e+09  6.03046351e+09  4.99e-07 1.86e-09  3.87e+00    21s
  51   6.03296692e+09  6.03068357e+09  4.31e-07 1.86e-09  3.30e+00    21s
  52   6.03278669e+09  6.03076870e+09  3.77e-07 1.86e-09  2.92e+00    22s
  53   6.03262909e+09  6.03096276e+09  3.17e-07 2.79e-09  2.41e+00    22s
  54   6.03253019e+09  6.03124951e+09  2.78e-07 1.86e-09  1.85e+00    22s
  55   6.03247021e+09  6.03135834e+09  4.06e-07 1.86e-09  1.61e+00    23s
  56   6.03227106e+09  6.03141466e+09  4.29e-07 1.86e-09  1.24e+00    23s
  57   6.03216470e+09  6.03159889e+09  3.16e-07 1.86e-09  8.18e-01    24s
  58   6.03208818e+09  6.03167547e+09  3.02e-07 1.86e-09  5.97e-01    24s
  59   6.03200703e+09  6.03175197e+09  1.92e-07 1.86e-09  3.69e-01    25s
  60   6.03198436e+09  6.03177669e+09  1.63e-07 2.79e-09  3.00e-01    25s
  61   6.03194017e+09  6.03182608e+09  1.51e-07 1.86e-09  1.65e-01    26s
  62   6.03191092e+09  6.03185757e+09  8.97e-08 2.79e-09  7.72e-02    26s
  63   6.03190361e+09  6.03185787e+09  7.49e-08 2.79e-09  6.62e-02    26s
  64   6.03190039e+09  6.03185907e+09  6.84e-08 2.79e-09  5.98e-02    27s
  65   6.03189864e+09  6.03186056e+09  6.48e-08 2.79e-09  5.51e-02    27s
  66   6.03188166e+09  6.03186090e+09  3.06e-08 2.79e-09  3.00e-02    27s
  67   6.03187409e+09  6.03186217e+09  1.52e-08 1.86e-09  1.72e-02    28s

Barrier solved model in 67 iterations and 27.59 seconds
Optimal objective 6.03187409e+09

Crossover log...

   75911 DPushes remaining with DInf 0.0000000e+00                28s
    1969 DPushes remaining with DInf 0.0000000e+00                30s
       0 DPushes remaining with DInf 0.0000000e+00                32s
Warning: Markowitz tolerance tightened to 0.5

  175209 PPushes remaining with PInf 0.0000000e+00                32s
   72463 PPushes remaining with PInf 7.3130371e-02                74s
   56611 PPushes remaining with PInf 1.6611663e-02                77s
    4539 PPushes remaining with PInf 0.0000000e+00                82s
    1919 PPushes remaining with PInf 0.0000000e+00                94s
     998 PPushes remaining with PInf 0.0000000e+00               100s
     316 PPushes remaining with PInf 0.0000000e+00               104s
       0 PPushes remaining with PInf 0.0000000e+00               107s

  Push phase complete: Pinf 0.0000000e+00, Dinf 1.4125900e+06    107s

Iteration    Objective       Primal Inf.    Dual Inf.      Time
  203255    6.0318667e+09   0.000000e+00   1.412590e+06    107s
  204068    6.0318665e+09   0.000000e+00   2.211016e+04    111s
  206508    6.0318665e+09   0.000000e+00   1.600529e+02    115s
  207103    6.0318665e+09   0.000000e+00   0.000000e+00    118s

Solved with barrier
Solved in 207103 iterations and 118.00 seconds
Optimal objective  6.031866461e+09
Warning: unscaled primal violation = 0.000883165 and residual = 0.000883165
